0 547744 
1 547704 
2 547178 
3 544988 
4 535082 
5 534406 
6 528710 
7 527294 
8 525036 
9 522522 
10 519186 
11 513982 
12 513636 
13 512924 
14 512632 
15 510926 
16 510830 
17 510024 
18 507420 
19 503088 
20 502380 
21 501416 
22 500240 
23 498148 
24 494058 
25 492374 
26 491330 
27 490052 
28 489308 
29 488824 
30 486620 
31 485802 
32 485706 
33 483992 
34 481538 
35 480664 
36 477408 
37 474574 
38 472568 
39 470726 
40 467820 
41 467572 
42 466922 
43 466554 
44 463850 
45 462330 
46 458842 
47 457112 
48 456028 
49 450796 
50 449242 
51 448230 
52 444412 
53 444292 
54 444178 
55 443122 
56 440998 
57 436642 
58 434700 
59 433758 
60 430048 
61 429988 
62 429110 
63 427842 
64 427788 
65 422774 
66 421342 
67 419740 
68 419408 
69 418432 
70 411610 
71 409100 
72 408082 
73 404130 
74 403736 
75 403736 

